; --full-saturate-quant --inst-when=full-last-call --inst-no-entail --term-db-mode=relevant --random-seed=1 --lang=smt2 --tlimit 267
;(set-option :produce-unsat-cores true)
(set-logic ALL_SUPPORTED)
(declare-sort A$ 0)
(declare-sort A_set$ 0)
(declare-sort A_bool_fun$ 0)
(declare-sort A_llist_set$ 0)
(declare-sort A_a_bool_fun_fun$ 0)
(declare-sort A_llist_bool_fun$ 0)
(declare-sort A_llist_a_llist_fun$ 0)
(declare-codatatypes () ((A_llist$ (lNil$) (lCons$ (lhd$ A$) (ltl$ A_llist$)))))
(declare-fun n$ () A$)
(declare-fun x$ () A$)
(declare-fun xs$ () A_llist$)
(declare-fun xs$a () A_llist$)
(declare-fun xs$b () A_llist$)
(declare-fun lset$ (A_llist$) A_set$)
(declare-fun graph$ () A_a_bool_fun_fun$)
(declare-fun paths$ (A_a_bool_fun_fun$) A_llist_set$)
(declare-fun member$ (A_llist$ A_llist_set$) Bool)
(declare-fun fun_app$ (A_llist_a_llist_fun$ A_llist$) A_llist$)
(declare-fun lappend$ (A_llist$) A_llist_a_llist_fun$)
(declare-fun lfinite$ (A_llist$) Bool)
(declare-fun member$a (A$ A_set$) Bool)
(declare-fun fun_app$a (A_bool_fun$ A$) Bool)
(declare-fun fun_app$b (A_a_bool_fun_fun$ A$) A_bool_fun$)
(declare-fun fun_app$c (A_llist_bool_fun$ A_llist$) Bool)
(assert (! (not (member$ (fun_app$ (lappend$ (lCons$ n$ (fun_app$ (lappend$ xs$) (lCons$ x$ lNil$)))) xs$a) (paths$ graph$))) :named a0))
(assert (! (not (= n$ x$)) :named a1))
(assert (! (member$ (lCons$ n$ xs$b) (paths$ graph$)) :named a2))
(assert (! (= xs$b (fun_app$ (lappend$ xs$) (lCons$ x$ xs$a))) :named a3))
(assert (! (lfinite$ xs$) :named a4))
(assert (! (not (member$a x$ (lset$ xs$))) :named a5))
(assert (! (not (member$a n$ (lset$ xs$))) :named a6))
(assert (! (forall ((?v0 A_llist$) (?v1 A_a_bool_fun_fun$)) (= (member$ ?v0 (paths$ ?v1)) (or (= ?v0 lNil$) (or (exists ((?v2 A$)) (= ?v0 (lCons$ ?v2 lNil$))) (exists ((?v2 A$) (?v3 A$) (?v4 A_llist$)) (and (= ?v0 (lCons$ ?v2 (lCons$ ?v3 ?v4))) (and (fun_app$a (fun_app$b ?v1 ?v2) ?v3) (member$ (lCons$ ?v3 ?v4) (paths$ ?v1))))))))) :named a7))
(assert (! (forall ((?v0 A_llist$) (?v1 A_llist$) (?v2 A_a_bool_fun_fun$)) (=> (member$ (fun_app$ (lappend$ ?v0) ?v1) (paths$ ?v2)) (member$ ?v0 (paths$ ?v2)))) :named a8))
(assert (! (forall ((?v0 A$) (?v1 A_llist$) (?v2 A_a_bool_fun_fun$)) (=> (member$ (lCons$ ?v0 ?v1) (paths$ ?v2)) (member$ ?v1 (paths$ ?v2)))) :named a9))
(assert (! (forall ((?v0 A_llist$) (?v1 A_a_bool_fun_fun$)) (=> (and (member$ ?v0 (paths$ ?v1)) (and (=> (= ?v0 lNil$) false) (and (forall ((?v2 A$)) (=> (= ?v0 (lCons$ ?v2 lNil$)) false)) (forall ((?v2 A$) (?v3 A$) (?v4 A_llist$)) (=> (and (= ?v0 (lCons$ ?v2 (lCons$ ?v3 ?v4))) (and (fun_app$a (fun_app$b ?v1 ?v2) ?v3) (member$ (lCons$ ?v3 ?v4) (paths$ ?v1)))) false))))) false)) :named a10))
(assert (! (forall ((?v0 A_llist_bool_fun$) (?v1 A_llist$) (?v2 A_a_bool_fun_fun$)) (=> (and (fun_app$c ?v0 ?v1) (forall ((?v3 A_llist$)) (=> (fun_app$c ?v0 ?v3) (or (= ?v3 lNil$) (or (exists ((?v4 A$)) (= ?v3 (lCons$ ?v4 lNil$))) (exists ((?v4 A$) (?v5 A$) (?v6 A_llist$)) (and (= ?v3 (lCons$ ?v4 (lCons$ ?v5 ?v6))) (and (fun_app$a (fun_app$b ?v2 ?v4) ?v5) (or (fun_app$c ?v0 (lCons$ ?v5 ?v6)) (member$ (lCons$ ?v5 ?v6) (paths$ ?v2))))))))))) (member$ ?v1 (paths$ ?v2)))) :named a11))
(assert (! (forall ((?v0 A_a_bool_fun_fun$) (?v1 A$) (?v2 A$) (?v3 A_llist$)) (=> (and (fun_app$a (fun_app$b ?v0 ?v1) ?v2) (member$ (lCons$ ?v2 ?v3) (paths$ ?v0))) (member$ (lCons$ ?v1 (lCons$ ?v2 ?v3)) (paths$ ?v0)))) :named a12))
(assert (! (forall ((?v0 A$) (?v1 A_a_bool_fun_fun$)) (member$ (lCons$ ?v0 lNil$) (paths$ ?v1))) :named a13))
(assert (! (forall ((?v0 A_a_bool_fun_fun$)) (member$ lNil$ (paths$ ?v0))) :named a14))
(assert (! (member$a x$ (lset$ xs$b)) :named a15))
(assert (! (forall ((?v0 A_llist$)) (! (= (fun_app$ (lappend$ ?v0) lNil$) ?v0) :pattern ((lappend$ ?v0)))) :named a16))
(assert (! (forall ((?v0 A_llist$)) (! (= (fun_app$ (lappend$ lNil$) ?v0) ?v0) :pattern ((fun_app$ (lappend$ lNil$) ?v0)))) :named a17))
(check-sat)
;(get-unsat-core)
